
Gurobi 11.0.1 (win64) logging started Thu May 23 22:21:38 2024

Set parameter LogFile to value "./results//log/BAG_05_p1_1_makespan.log"
Gurobi Optimizer version 11.0.1 build v11.0.1rc0 (win64 - Windows 11.0 (22631.2))

CPU model: AMD Ryzen 7 3700X 8-Core Processor, instruction set [SSE2|AVX|AVX2]
Thread count: 8 physical cores, 16 logical processors, using up to 16 threads

Optimize a model with 353 rows, 676 columns and 1373 nonzeros
Model fingerprint: 0xe375be1d
Variable types: 25 continuous, 651 integer (650 binary)
Coefficient statistics:
  Matrix range     [1e+00, 3e+02]
  Objective range  [1e+00, 1e+00]
  Bounds range     [1e+00, 1e+00]
  RHS range        [1e+00, 7e+02]
Presolve removed 133 rows and 556 columns
Presolve time: 0.01s
Presolved: 220 rows, 120 columns, 632 nonzeros
Variable types: 25 continuous, 95 integer (94 binary)
Found heuristic solution: objective 650.0000000
Found heuristic solution: objective 608.0000000
Found heuristic solution: objective 607.0000000

Root relaxation: objective 1.510000e+02, 88 iterations, 0.00 seconds (0.00 work units)

    Nodes    |    Current Node    |     Objective Bounds      |     Work
 Expl Unexpl |  Obj  Depth IntInf | Incumbent    BestBd   Gap | It/Node Time

     0     0  151.00000    0   40  607.00000  151.00000  75.1%     -    0s
H    0     0                     335.0000000  151.00000  54.9%     -    0s
H    0     0                     334.0000000  151.00000  54.8%     -    0s
H    0     0                     328.0000000  151.00000  54.0%     -    0s
     0     0  165.71581    0   65  328.00000  165.71581  49.5%     -    0s
     0     0  169.10224    0   62  328.00000  169.10224  48.4%     -    0s
     0     0  169.10224    0   61  328.00000  169.10224  48.4%     -    0s
     0     0  169.10224    0   61  328.00000  169.10224  48.4%     -    0s
     0     0  179.19378    0   69  328.00000  179.19378  45.4%     -    0s
H    0     0                     323.0000000  180.90820  44.0%     -    0s
     0     0  180.90820    0   66  323.00000  180.90820  44.0%     -    0s
     0     0  180.90820    0   63  323.00000  180.90820  44.0%     -    0s
     0     0  180.90820    0   67  323.00000  180.90820  44.0%     -    0s
     0     0  180.90820    0   66  323.00000  180.90820  44.0%     -    0s
     0     0  180.90820    0   61  323.00000  180.90820  44.0%     -    0s
     0     0  187.07225    0   62  323.00000  187.07225  42.1%     -    0s
     0     0  189.69493    0   60  323.00000  189.69493  41.3%     -    0s
     0     0  189.84006    0   60  323.00000  189.84006  41.2%     -    0s
     0     0  189.96594    0   62  323.00000  189.96594  41.2%     -    0s
     0     0  190.03170    0   55  323.00000  190.03170  41.2%     -    0s
     0     0  190.03325    0   60  323.00000  190.03325  41.2%     -    0s
     0     0  191.35444    0   49  323.00000  191.35444  40.8%     -    0s
     0     0  192.36655    0   46  323.00000  192.36655  40.4%     -    0s
H    0     0                     319.0000000  192.36655  39.7%     -    0s
     0     0  200.23386    0   56  319.00000  200.23386  37.2%     -    0s
     0     0  200.26888    0   59  319.00000  200.26888  37.2%     -    0s
     0     0  200.26888    0   50  319.00000  200.26888  37.2%     -    0s
H    0     0                     303.0000000  200.26888  33.9%     -    0s
     0     0  200.26888    0   21  303.00000  200.26888  33.9%     -    0s
H    0     0                     302.0000000  200.26888  33.7%     -    0s
     0     0  200.26888    0   42  302.00000  200.26888  33.7%     -    0s
     0     0  200.26888    0   35  302.00000  200.26888  33.7%     -    0s
     0     0  200.26888    0   42  302.00000  200.26888  33.7%     -    0s
H    0     0                     291.0000000  200.26888  31.2%     -    0s
     0     0  200.26888    0   48  291.00000  200.26888  31.2%     -    0s
     0     0  200.26888    0   45  291.00000  200.26888  31.2%     -    0s
     0     0  200.26888    0   38  291.00000  200.26888  31.2%     -    0s
     0     2  200.26888    0   38  291.00000  200.26888  31.2%     -    0s
H   30    24                     286.0000000  200.96808  29.7%  74.0    0s

Cutting planes:
  Gomory: 11
  Implied bound: 84
  MIR: 174
  Inf proof: 20
  RLT: 14
  Relax-and-lift: 23

Explored 2891 nodes (36075 simplex iterations) in 0.49 seconds (0.35 work units)
Thread count was 16 (of 16 available processors)

Solution count 10: 286 291 302 ... 607

Optimal solution found (tolerance 1.00e-04)
Best objective 2.860000000000e+02, best bound 2.860000000000e+02, gap 0.0000%
Warning: constraint name "precedence between 0,0 to 0,1 if x_[0,0,0,1,1]=0, i.e. 0,1 before 0,0" has a space
Warning: constraint name "precedence between 0,0 to 0,1 if x_[0,0,0,1,1]=0, i.e. 0,1 before 0,0" has a space
Warning: default constraint names used to write mps file
